<number of tasks>
50

<cycle time>
1000

<order strength>
0.596


<task times>
1 713
2 277
3 522
4 628
5 682
6 429
7 299
8 682
9 490
10 397
11 603
12 561
13 510
14 439
15 277
16 546
17 564
18 399
19 518
20 603
21 343
22 523
23 611
24 489
25 449
26 728
27 686
28 421
29 459
30 357
31 561
32 576
33 452
34 298
35 475
36 500
37 459
38 444
39 590
40 539
41 405
42 413
43 554
44 487
45 417
46 326
47 405
48 336
49 732
50 391

<precedence relations>
1,17
1,31
2,5
2,7
3,9
4,5
4,6
4,8
5,11
6,10
6,20
7,10
8,12
9,13
10,13
10,16
11,15
12,13
12,14
13,17
13,18
13,19
14,26
14,33
14,36
15,19
15,20
16,41
17,21
17,22
17,24
17,40
18,26
18,33
18,34
19,23
19,24
19,25
20,21
20,22
20,26
21,27
21,30
22,34
22,47
23,29
25,31
26,28
29,31
29,33
29,34
30,32
30,35
31,36
31,43
32,38
32,43
32,47
33,35
33,37
33,39
34,36
34,45
35,42
36,41
36,44
37,40
37,41
37,42
37,43
37,44
38,44
38,45
38,46
38,50
39,46
40,47
41,50
42,47
44,48
46,49

<end>
